set I := 0 1 ;
set F := 0 1 2 ;
set J := 0 1 2 3 4 ;
param p := 
0  43.421
1  104.037
;
param d := 
0  20.113
1  21.506
2  19.036
3  12.035
4  25.617
;
param: b h := 
0  40.021  1001.291
1  54.287  1154.797
2  53.150  1151.785
;
param c : 0       1       2       :=
0   0.700   4.173   5.581  
1   6.019   9.083   10.874 
;
param t : 0       1       2       3       4       :=
0   2.985   6.926   6.645   5.574   2.118  
1   3.085   9.803   7.786   0.945   6.635  
2   4.886   11.614  9.616   0.957   7.663  
;
end;